NAME:  test1
TYPE: AGTSP
COMMENT: gtsp tours
DIMENSION:  57
GTSP_SETS: 15
EDGE_WEIGHT_TYPE: EXPLICIT
EDGE_WEIGHT_FORMAT: FULL_MATRIX 
EDGE_WEIGHT_SECTION
999999	0	999999	999999	19862	19862	19862	19854	19847	19847	19847	19839	19841	19841	19833	999999	19879	19879	999999	999999	19831	19831	19823	999999	19875	19875	999999	999999	19877	19877	999999	999999	19870	19870	999999	999999	19861	19861	19861	19853	19880	19880	999999	999999	19845	19845	19837	999999	19839	19839	19831	999999	19830	19830	19822	999999	0
999999	999999	0	999999	19862	19862	19862	999999	19847	19847	19847	999999	19841	19841	19841	19833	19879	19879	19879	999999	19831	19831	19831	19823	19875	19875	19875	999999	19877	19877	19877	999999	19870	19870	19870	999999	19861	19861	19861	999999	19880	19880	19880	999999	19845	19845	19845	19837	19839	19839	19839	19831	19830	19830	19830	19822	0
999999	999999	999999	0	19862	19862	19862	19862	19847	19847	19847	19847	19841	19841	19841	19841	19879	19879	19879	19879	19831	19831	19831	19831	19875	19875	19875	19875	19877	19877	19877	19877	19870	19870	19870	19870	19861	19861	19861	19861	19880	19880	19880	19880	19845	19845	19845	19845	19839	19839	19839	19839	19830	19830	19830	19830	0
0	999999	999999	999999	19862	19862	19854	999999	19847	19847	19839	999999	19841	19833	999999	999999	19879	19879	19879	19871	19831	19823	999999	999999	19875	19875	19875	19867	19877	19877	19877	19869	19870	19870	19870	19862	19861	19861	19853	999999	19880	19880	19880	19872	19845	19837	999999	999999	19839	19831	999999	999999	19830	19822	999999	999999	0
19862	19862	19862	19854	999999	0	999999	999999	19842	19842	19834	999999	19847	19847	19847	19839	19854	19854	19854	19846	19860	19860	19860	19852	19848	19848	19848	19840	19842	19842	19834	999999	19835	19835	19827	999999	19838	19838	19830	999999	19847	19847	19847	19839	19843	19843	19835	999999	19867	19867	999999	999999	19861	19861	19861	19853	0
19862	19862	19862	999999	999999	999999	0	999999	19842	19842	19842	19834	19847	19847	19847	999999	19854	19854	19854	999999	19860	19860	19860	999999	19848	19848	19848	999999	19842	19842	19842	19834	19835	19835	19835	19827	19838	19838	19838	19830	19847	19847	19847	999999	19843	19843	19843	19835	19867	19867	19867	999999	19861	19861	19861	999999	0
19862	19862	19862	19862	999999	999999	999999	0	19842	19842	19842	19842	19847	19847	19847	19847	19854	19854	19854	19854	19860	19860	19860	19860	19848	19848	19848	19848	19842	19842	19842	19842	19835	19835	19835	19835	19838	19838	19838	19838	19847	19847	19847	19847	19843	19843	19843	19843	19867	19867	19867	19867	19861	19861	19861	19861	0
19862	19862	19854	999999	0	999999	999999	999999	19842	19834	999999	999999	19847	19847	19839	999999	19854	19854	19846	999999	19860	19860	19852	999999	19848	19848	19840	999999	19842	19834	999999	999999	19835	19827	999999	999999	19838	19830	999999	999999	19847	19847	19839	999999	19843	19835	999999	999999	19867	19867	19867	19859	19861	19861	19853	999999	0
19847	19847	19847	19839	19842	19842	19834	999999	999999	0	999999	999999	19831	19831	19823	999999	19867	19867	999999	999999	19847	19847	19847	19839	19862	19862	19862	19854	19859	19859	19859	19851	19852	19852	19852	19844	19848	19848	19848	19840	19864	19864	19864	19856	19830	19830	19822	999999	19856	19856	19856	19848	19845	19845	19837	999999	0
19847	19847	19847	999999	19842	19842	19842	19834	999999	999999	0	999999	19831	19831	19831	19823	19867	19867	19867	999999	19847	19847	19847	999999	19862	19862	19862	999999	19859	19859	19859	999999	19852	19852	19852	999999	19848	19848	19848	999999	19864	19864	19864	999999	19830	19830	19830	19822	19856	19856	19856	999999	19845	19845	19845	19837	0
19847	19847	19847	19847	19842	19842	19842	19842	999999	999999	999999	0	19831	19831	19831	19831	19867	19867	19867	19867	19847	19847	19847	19847	19862	19862	19862	19862	19859	19859	19859	19859	19852	19852	19852	19852	19848	19848	19848	19848	19864	19864	19864	19864	19830	19830	19830	19830	19856	19856	19856	19856	19845	19845	19845	19845	0
19847	19847	19839	999999	19842	19834	999999	999999	0	999999	999999	999999	19831	19823	999999	999999	19867	19867	19867	19859	19847	19847	19839	999999	19862	19862	19854	999999	19859	19859	19851	999999	19852	19852	19844	999999	19848	19848	19840	999999	19864	19864	19856	999999	19830	19822	999999	999999	19856	19856	19848	999999	19845	19837	999999	999999	0
19841	19841	19833	999999	19847	19847	19847	19839	19831	19831	19823	999999	999999	0	999999	999999	19868	19868	999999	999999	19841	19841	19833	999999	19863	19863	19863	19855	19862	19862	19862	19854	19855	19855	19855	19847	19849	19849	19849	19841	19866	19866	19866	19858	19829	19829	19821	999999	19850	19850	19850	19842	19839	19839	19831	999999	0
19841	19841	19841	19833	19847	19847	19847	999999	19831	19831	19831	19823	999999	999999	0	999999	19868	19868	19868	999999	19841	19841	19841	19833	19863	19863	19863	999999	19862	19862	19862	999999	19855	19855	19855	999999	19849	19849	19849	999999	19866	19866	19866	999999	19829	19829	19829	19821	19850	19850	19850	999999	19839	19839	19839	19831	0
19841	19841	19841	19841	19847	19847	19847	19847	19831	19831	19831	19831	999999	999999	999999	0	19868	19868	19868	19868	19841	19841	19841	19841	19863	19863	19863	19863	19862	19862	19862	19862	19855	19855	19855	19855	19849	19849	19849	19849	19866	19866	19866	19866	19829	19829	19829	19829	19850	19850	19850	19850	19839	19839	19839	19839	0
19841	19833	999999	999999	19847	19847	19839	999999	19831	19823	999999	999999	0	999999	999999	999999	19868	19868	19868	19860	19841	19833	999999	999999	19863	19863	19855	999999	19862	19862	19854	999999	19855	19855	19847	999999	19849	19849	19841	999999	19866	19866	19858	999999	19829	19821	999999	999999	19850	19850	19842	999999	19839	19831	999999	999999	0
19879	19879	999999	999999	19854	19854	19854	19846	19867	19867	999999	999999	19868	19868	999999	999999	999999	0	999999	999999	19874	19874	999999	999999	19831	19831	19823	999999	19842	19842	19834	999999	19845	19845	19837	999999	19844	19844	19836	999999	19838	19838	19830	999999	19864	19864	19864	19856	19875	19875	999999	999999	19881	19881	999999	999999	0
19879	19879	19879	999999	19854	19854	19854	999999	19867	19867	19867	999999	19868	19868	19868	999999	999999	999999	0	999999	19874	19874	19874	999999	19831	19831	19831	19823	19842	19842	19842	19834	19845	19845	19845	19837	19844	19844	19844	19836	19838	19838	19838	19830	19864	19864	19864	999999	19875	19875	19875	999999	19881	19881	19881	999999	0
19879	19879	19879	19879	19854	19854	19854	19854	19867	19867	19867	19867	19868	19868	19868	19868	999999	999999	999999	0	19874	19874	19874	19874	19831	19831	19831	19831	19842	19842	19842	19842	19845	19845	19845	19845	19844	19844	19844	19844	19838	19838	19838	19838	19864	19864	19864	19864	19875	19875	19875	19875	19881	19881	19881	19881	0
19879	19879	19879	19871	19854	19854	19846	999999	19867	19867	19867	19859	19868	19868	19868	19860	0	999999	999999	999999	19874	19874	19874	19866	19831	19823	999999	999999	19842	19834	999999	999999	19845	19837	999999	999999	19844	19836	999999	999999	19838	19830	999999	999999	19864	19864	19856	999999	19875	19875	19875	19867	19881	19881	19881	19873	0
19831	19831	19823	999999	19860	19860	19860	19852	19847	19847	19847	19839	19841	19841	19833	999999	19874	19874	999999	999999	999999	0	999999	999999	19869	19869	999999	999999	19873	19873	999999	999999	19866	19866	19866	19858	19857	19857	19857	19849	19876	19876	999999	999999	19843	19843	19835	999999	19835	19835	19827	999999	19836	19836	19828	999999	0
19831	19831	19831	19823	19860	19860	19860	999999	19847	19847	19847	999999	19841	19841	19841	19833	19874	19874	19874	999999	999999	999999	0	999999	19869	19869	19869	999999	19873	19873	19873	999999	19866	19866	19866	999999	19857	19857	19857	999999	19876	19876	19876	999999	19843	19843	19843	19835	19835	19835	19835	19827	19836	19836	19836	19828	0
19831	19831	19831	19831	19860	19860	19860	19860	19847	19847	19847	19847	19841	19841	19841	19841	19874	19874	19874	19874	999999	999999	999999	0	19869	19869	19869	19869	19873	19873	19873	19873	19866	19866	19866	19866	19857	19857	19857	19857	19876	19876	19876	19876	19843	19843	19843	19843	19835	19835	19835	19835	19836	19836	19836	19836	0
19831	19823	999999	999999	19860	19860	19852	999999	19847	19847	19839	999999	19841	19833	999999	999999	19874	19874	19874	19866	0	999999	999999	999999	19869	19869	19869	19861	19873	19873	19873	19865	19866	19866	19858	999999	19857	19857	19849	999999	19876	19876	19876	19868	19843	19835	999999	999999	19835	19827	999999	999999	19836	19828	999999	999999	0
19875	19875	999999	999999	19848	19848	19848	19840	19862	19862	19862	19854	19863	19863	19863	19855	19831	19831	19823	999999	19869	19869	999999	999999	999999	0	999999	999999	19838	19838	19830	999999	19840	19840	19832	999999	19839	19839	19831	999999	19835	19835	19827	999999	19859	19859	19859	19851	19872	19872	999999	999999	19876	19876	999999	999999	0
19875	19875	19875	999999	19848	19848	19848	999999	19862	19862	19862	999999	19863	19863	19863	999999	19831	19831	19831	19823	19869	19869	19869	999999	999999	999999	0	999999	19838	19838	19838	19830	19840	19840	19840	19832	19839	19839	19839	19831	19835	19835	19835	19827	19859	19859	19859	999999	19872	19872	19872	999999	19876	19876	19876	999999	0
19875	19875	19875	19875	19848	19848	19848	19848	19862	19862	19862	19862	19863	19863	19863	19863	19831	19831	19831	19831	19869	19869	19869	19869	999999	999999	999999	0	19838	19838	19838	19838	19840	19840	19840	19840	19839	19839	19839	19839	19835	19835	19835	19835	19859	19859	19859	19859	19872	19872	19872	19872	19876	19876	19876	19876	0
19875	19875	19875	19867	19848	19848	19840	999999	19862	19862	19854	999999	19863	19863	19855	999999	19831	19823	999999	999999	19869	19869	19869	19861	0	999999	999999	999999	19838	19830	999999	999999	19840	19832	999999	999999	19839	19831	999999	999999	19835	19827	999999	999999	19859	19859	19851	999999	19872	19872	19872	19864	19876	19876	19876	19868	0
19877	19877	999999	999999	19842	19842	19834	999999	19859	19859	19859	19851	19862	19862	19862	19854	19842	19842	19834	999999	19873	19873	999999	999999	19838	19838	19830	999999	999999	0	999999	999999	19832	19832	19824	999999	19841	19841	19833	999999	19831	19831	19823	999999	19858	19858	19858	19850	19878	19878	999999	999999	19877	19877	999999	999999	0
19877	19877	19877	999999	19842	19842	19842	19834	19859	19859	19859	999999	19862	19862	19862	999999	19842	19842	19842	19834	19873	19873	19873	999999	19838	19838	19838	19830	999999	999999	0	999999	19832	19832	19832	19824	19841	19841	19841	19833	19831	19831	19831	19823	19858	19858	19858	999999	19878	19878	19878	999999	19877	19877	19877	999999	0
19877	19877	19877	19877	19842	19842	19842	19842	19859	19859	19859	19859	19862	19862	19862	19862	19842	19842	19842	19842	19873	19873	19873	19873	19838	19838	19838	19838	999999	999999	999999	0	19832	19832	19832	19832	19841	19841	19841	19841	19831	19831	19831	19831	19858	19858	19858	19858	19878	19878	19878	19878	19877	19877	19877	19877	0
19877	19877	19877	19869	19842	19834	999999	999999	19859	19859	19851	999999	19862	19862	19854	999999	19842	19834	999999	999999	19873	19873	19873	19865	19838	19830	999999	999999	0	999999	999999	999999	19832	19824	999999	999999	19841	19833	999999	999999	19831	19823	999999	999999	19858	19858	19850	999999	19878	19878	19878	19870	19877	19877	19877	19869	0
19870	19870	999999	999999	19835	19835	19827	999999	19852	19852	19852	19844	19855	19855	19855	19847	19845	19845	19837	999999	19866	19866	19866	19858	19840	19840	19832	999999	19832	19832	19824	999999	999999	0	999999	999999	19836	19836	19828	999999	19837	19837	19829	999999	19851	19851	19851	19843	19872	19872	999999	999999	19870	19870	999999	999999	0
19870	19870	19870	999999	19835	19835	19835	19827	19852	19852	19852	999999	19855	19855	19855	999999	19845	19845	19845	19837	19866	19866	19866	999999	19840	19840	19840	19832	19832	19832	19832	19824	999999	999999	0	999999	19836	19836	19836	19828	19837	19837	19837	19829	19851	19851	19851	999999	19872	19872	19872	999999	19870	19870	19870	999999	0
19870	19870	19870	19870	19835	19835	19835	19835	19852	19852	19852	19852	19855	19855	19855	19855	19845	19845	19845	19845	19866	19866	19866	19866	19840	19840	19840	19840	19832	19832	19832	19832	999999	999999	999999	0	19836	19836	19836	19836	19837	19837	19837	19837	19851	19851	19851	19851	19872	19872	19872	19872	19870	19870	19870	19870	0
19870	19870	19870	19862	19835	19827	999999	999999	19852	19852	19844	999999	19855	19855	19847	999999	19845	19837	999999	999999	19866	19866	19858	999999	19840	19832	999999	999999	19832	19824	999999	999999	0	999999	999999	999999	19836	19828	999999	999999	19837	19829	999999	999999	19851	19851	19843	999999	19872	19872	19872	19864	19870	19870	19870	19862	0
19861	19861	19861	19853	19838	19838	19830	999999	19848	19848	19848	19840	19849	19849	19849	19841	19844	19844	19836	999999	19857	19857	19857	19849	19839	19839	19831	999999	19841	19841	19833	999999	19836	19836	19828	999999	999999	0	999999	999999	19843	19843	19835	999999	19845	19845	19837	999999	19862	19862	19862	19854	19862	19862	19862	19854	0
19861	19861	19861	999999	19838	19838	19838	19830	19848	19848	19848	999999	19849	19849	19849	999999	19844	19844	19844	19836	19857	19857	19857	999999	19839	19839	19839	19831	19841	19841	19841	19833	19836	19836	19836	19828	999999	999999	0	999999	19843	19843	19843	19835	19845	19845	19845	19837	19862	19862	19862	999999	19862	19862	19862	999999	0
19861	19861	19861	19861	19838	19838	19838	19838	19848	19848	19848	19848	19849	19849	19849	19849	19844	19844	19844	19844	19857	19857	19857	19857	19839	19839	19839	19839	19841	19841	19841	19841	19836	19836	19836	19836	999999	999999	999999	0	19843	19843	19843	19843	19845	19845	19845	19845	19862	19862	19862	19862	19862	19862	19862	19862	0
19861	19861	19853	999999	19838	19830	999999	999999	19848	19848	19840	999999	19849	19849	19841	999999	19844	19836	999999	999999	19857	19857	19849	999999	19839	19831	999999	999999	19841	19833	999999	999999	19836	19828	999999	999999	0	999999	999999	999999	19843	19835	999999	999999	19845	19837	999999	999999	19862	19862	19854	999999	19862	19862	19854	999999	0
19880	19880	999999	999999	19847	19847	19847	19839	19864	19864	19864	19856	19866	19866	19866	19858	19838	19838	19830	999999	19876	19876	999999	999999	19835	19835	19827	999999	19831	19831	19823	999999	19837	19837	19829	999999	19843	19843	19835	999999	999999	0	999999	999999	19862	19862	19862	19854	19880	19880	999999	999999	19880	19880	999999	999999	0
19880	19880	19880	999999	19847	19847	19847	999999	19864	19864	19864	999999	19866	19866	19866	999999	19838	19838	19838	19830	19876	19876	19876	999999	19835	19835	19835	19827	19831	19831	19831	19823	19837	19837	19837	19829	19843	19843	19843	19835	999999	999999	0	999999	19862	19862	19862	999999	19880	19880	19880	999999	19880	19880	19880	999999	0
19880	19880	19880	19880	19847	19847	19847	19847	19864	19864	19864	19864	19866	19866	19866	19866	19838	19838	19838	19838	19876	19876	19876	19876	19835	19835	19835	19835	19831	19831	19831	19831	19837	19837	19837	19837	19843	19843	19843	19843	999999	999999	999999	0	19862	19862	19862	19862	19880	19880	19880	19880	19880	19880	19880	19880	0
19880	19880	19880	19872	19847	19847	19839	999999	19864	19864	19856	999999	19866	19866	19858	999999	19838	19830	999999	999999	19876	19876	19876	19868	19835	19827	999999	999999	19831	19823	999999	999999	19837	19829	999999	999999	19843	19835	999999	999999	0	999999	999999	999999	19862	19862	19854	999999	19880	19880	19880	19872	19880	19880	19880	19872	0
19845	19845	19837	999999	19843	19843	19835	999999	19830	19830	19822	999999	19829	19829	19821	999999	19864	19864	19864	19856	19843	19843	19835	999999	19859	19859	19859	19851	19858	19858	19858	19850	19851	19851	19851	19843	19845	19845	19837	999999	19862	19862	19862	19854	999999	0	999999	999999	19852	19852	19852	19844	19843	19843	19835	999999	0
19845	19845	19845	19837	19843	19843	19843	19835	19830	19830	19830	19822	19829	19829	19829	19821	19864	19864	19864	999999	19843	19843	19843	19835	19859	19859	19859	999999	19858	19858	19858	999999	19851	19851	19851	999999	19845	19845	19845	19837	19862	19862	19862	999999	999999	999999	0	999999	19852	19852	19852	999999	19843	19843	19843	19835	0
19845	19845	19845	19845	19843	19843	19843	19843	19830	19830	19830	19830	19829	19829	19829	19829	19864	19864	19864	19864	19843	19843	19843	19843	19859	19859	19859	19859	19858	19858	19858	19858	19851	19851	19851	19851	19845	19845	19845	19845	19862	19862	19862	19862	999999	999999	999999	0	19852	19852	19852	19852	19843	19843	19843	19843	0
19845	19837	999999	999999	19843	19835	999999	999999	19830	19822	999999	999999	19829	19821	999999	999999	19864	19864	19856	999999	19843	19835	999999	999999	19859	19859	19851	999999	19858	19858	19850	999999	19851	19851	19843	999999	19845	19837	999999	999999	19862	19862	19854	999999	0	999999	999999	999999	19852	19852	19844	999999	19843	19835	999999	999999	0
19839	19839	19831	999999	19867	19867	999999	999999	19856	19856	19856	19848	19850	19850	19850	19842	19875	19875	999999	999999	19835	19835	19827	999999	19872	19872	999999	999999	19878	19878	999999	999999	19872	19872	999999	999999	19862	19862	19862	19854	19880	19880	999999	999999	19852	19852	19852	19844	999999	0	999999	999999	19845	19845	19837	999999	0
19839	19839	19839	19831	19867	19867	19867	999999	19856	19856	19856	999999	19850	19850	19850	999999	19875	19875	19875	999999	19835	19835	19835	19827	19872	19872	19872	999999	19878	19878	19878	999999	19872	19872	19872	999999	19862	19862	19862	999999	19880	19880	19880	999999	19852	19852	19852	999999	999999	999999	0	999999	19845	19845	19845	19837	0
19839	19839	19839	19839	19867	19867	19867	19867	19856	19856	19856	19856	19850	19850	19850	19850	19875	19875	19875	19875	19835	19835	19835	19835	19872	19872	19872	19872	19878	19878	19878	19878	19872	19872	19872	19872	19862	19862	19862	19862	19880	19880	19880	19880	19852	19852	19852	19852	999999	999999	999999	0	19845	19845	19845	19845	0
19839	19831	999999	999999	19867	19867	19867	19859	19856	19856	19848	999999	19850	19850	19842	999999	19875	19875	19875	19867	19835	19827	999999	999999	19872	19872	19872	19864	19878	19878	19878	19870	19872	19872	19872	19864	19862	19862	19854	999999	19880	19880	19880	19872	19852	19852	19844	999999	0	999999	999999	999999	19845	19837	999999	999999	0
19830	19830	19822	999999	19861	19861	19861	19853	19845	19845	19837	999999	19839	19839	19831	999999	19881	19881	999999	999999	19836	19836	19828	999999	19876	19876	999999	999999	19877	19877	999999	999999	19870	19870	999999	999999	19862	19862	19862	19854	19880	19880	999999	999999	19843	19843	19835	999999	19845	19845	19837	999999	999999	0	999999	999999	0
19830	19830	19830	19822	19861	19861	19861	999999	19845	19845	19845	19837	19839	19839	19839	19831	19881	19881	19881	999999	19836	19836	19836	19828	19876	19876	19876	999999	19877	19877	19877	999999	19870	19870	19870	999999	19862	19862	19862	999999	19880	19880	19880	999999	19843	19843	19843	19835	19845	19845	19845	19837	999999	999999	0	999999	0
19830	19830	19830	19830	19861	19861	19861	19861	19845	19845	19845	19845	19839	19839	19839	19839	19881	19881	19881	19881	19836	19836	19836	19836	19876	19876	19876	19876	19877	19877	19877	19877	19870	19870	19870	19870	19862	19862	19862	19862	19880	19880	19880	19880	19843	19843	19843	19843	19845	19845	19845	19845	999999	999999	999999	0	0
19830	19822	999999	999999	19861	19861	19853	999999	19845	19837	999999	999999	19839	19831	999999	999999	19881	19881	19881	19873	19836	19828	999999	999999	19876	19876	19876	19868	19877	19877	19877	19869	19870	19870	19870	19862	19862	19862	19854	999999	19880	19880	19880	19872	19843	19835	999999	999999	19845	19837	999999	999999	0	999999	999999	999999	0
19817	999999	999999	999999	19817	999999	999999	999999	19817	999999	999999	999999	19817	999999	999999	999999	19817	999999	999999	999999	19817	999999	999999	999999	19817	999999	999999	999999	19817	999999	999999	999999	19817	999999	999999	999999	19817	999999	999999	999999	19817	999999	999999	999999	19817	999999	999999	999999	19817	999999	999999	999999	19817	999999	999999	999999	999999
GTSP_SET_SECTION:
1 1 2 3 4 -1
2 5 6 7 8 -1
3 9 10 11 12 -1
4 13 14 15 16 -1
5 17 18 19 20 -1
6 21 22 23 24 -1
7 25 26 27 28 -1
8 29 30 31 32 -1
9 33 34 35 36 -1
10 37 38 39 40 -1
11 41 42 43 44 -1
12 45 46 47 48 -1
13 49 50 51 52 -1
14 53 54 55 56 -1
15 57 -1
EOF